sat
(
  (define-fun C2_VM2 () Int
    1)
  (define-fun PriceProv6 () Int
    210)
  (define-fun C1_VM3 () Int
    0)
  (define-fun C5_VM1 () Int
    1)
  (define-fun C4_VM3 () Int
    1)
  (define-fun C3_VM6 () Int
    0)
  (define-fun MemProv2 () Int
    7500)
  (define-fun ProcProv3 () Int
    8)
  (define-fun StorageProv3 () Int
    2000)
  (define-fun StorageProv4 () Int
    23999)
  (define-fun MemProv5 () Int
    7500)
  (define-fun ProcProv5 () Int
    4)
  (define-fun StorageProv1 () Int
    2000)
  (define-fun C5_VM6 () Int
    1)
  (define-fun PriceProv3 () Int
    532)
  (define-fun VM2Type () Int
    182)
  (define-fun PriceProv5 () Int
    210)
  (define-fun PriceProv1 () Int
    460)
  (define-fun C5_VM3 () Int
    0)
  (define-fun VM4Type () Int
    0)
  (define-fun ProcProv4 () Int
    0)
  (define-fun ProcProv2 () Int
    4)
  (define-fun C2_VM6 () Int
    1)
  (define-fun C3_VM5 () Int
    0)
  (define-fun C3_VM2 () Int
    0)
  (define-fun VM3Type () Int
    134)
  (define-fun C1_VM5 () Int
    1)
  (define-fun C5_VM5 () Int
    0)
  (define-fun C2_VM1 () Int
    0)
  (define-fun VM6Type () Int
    182)
  (define-fun C1_VM2 () Int
    0)
  (define-fun MemProv4 () Int
    7001)
  (define-fun StorageProv6 () Int
    2000)
  (define-fun C5_VM4 () Int
    0)
  (define-fun C4_VM4 () Int
    0)
  (define-fun C4_VM1 () Int
    0)
  (define-fun C4_VM6 () Int
    0)
  (define-fun ProcProv1 () Int
    8)
  (define-fun VM1Type () Int
    136)
  (define-fun C2_VM5 () Int
    0)
  (define-fun C3_VM1 () Int
    1)
  (define-fun C4_VM5 () Int
    0)
  (define-fun C2_VM4 () Int
    0)
  (define-fun C5_VM2 () Int
    1)
  (define-fun PriceProv4 () Int
    0)
  (define-fun C1_VM4 () Int
    0)
  (define-fun C3_VM3 () Int
    0)
  (define-fun StorageProv2 () Int
    2000)
  (define-fun VM5Type () Int
    182)
  (define-fun C4_VM2 () Int
    0)
  (define-fun PriceProv2 () Int
    210)
  (define-fun StorageProv5 () Int
    2000)
  (define-fun C2_VM3 () Int
    0)
  (define-fun MemProv6 () Int
    7500)
  (define-fun ProcProv6 () Int
    4)
  (define-fun C3_VM4 () Int
    0)
  (define-fun MemProv1 () Int
    15000)
  (define-fun MemProv3 () Int
    30000)
  (define-fun C1_VM6 () Int
    0)
  (define-fun C1_VM1 () Int
    0)
)
(objectives
 ( 13)
 ((+ 0 PriceProv1 PriceProv2 PriceProv3 PriceProv4 PriceProv5 PriceProv6) 1622)
)
(:added-eqs                   37496
 :arith-eq-adapter            61994
 :arith-bound-propagations-lp 1006
 :arith-conflicts             25
 :arith-diseq                 61598
 :arith-fixed-eqs             338
 :arith-lower                 83241
 :arith-make-feasible         41639
 :arith-max-columns           350
 :arith-max-rows              20
 :arith-upper                 43371
 :binary-propagations         56566
 :bv-bit2core                 107
 :bv-dynamic-diseqs           11287
 :bv->core-eq                 661
 :conflicts                   1243
 :decisions                   56554
 :del-clause                  23685
 :final-checks                38
 :max-memory                  60.70
 :maxsat-cores                2
 :memory                      59.58
 :minimized-lits              583
 :mk-bool-var                 124824
 :mk-clause                   24775
 :mk-clause-binary            6597
 :num-allocs                  537012716
 :num-checks                  43
 :pb-conflicts                9
 :pb-predicates               18
 :pb-propagations             175
 :pb-resolves                 9
 :propagations                69830
 :restarts                    6
 :rlimit-count                3354426
 :solve-eqs-elim-vars         1
 :solve-eqs-steps             10
 :time                        0.47
 :total-time                  0.49)
